NAME
* Written by MOSEK version 6.0.0.137
OBJSENSE
    MIN
ROWS
 N  obj
 E  c1
 E  c2
 E  c3
 E  c4
 E  c5
 E  c6
 E  c7
 E  c8
 E  c9
 E  c10
 E  c11
 E  c12
 E  c13
 E  c14
 E  c15
 E  c16
 E  c17
 E  c18
 E  c19
 E  c20
 E  c21
 E  c22
COLUMNS
    x1        obj       92
    x1        c1        1
    x1        c2        6
    x1        c21       6
    x1        c22       5
    x2        obj       31
    x2        c2        5
    x2        c22       2
    x3        obj       62
    x3        c2        4
    x3        c22       9
    x4        obj       1.2e+02
    x4        c3        1
    x4        c4        6
    x4        c21       9
    x4        c22       5
    x5        obj       76
    x5        c4        4
    x5        c22       11
    x6        obj       58
    x6        c4        7
    x6        c22       4
    x7        obj       1.07e+02
    x7        c5        1
    x7        c6        4
    x7        c21       2
    x7        c22       10
    x8        obj       88
    x8        c6        6
    x8        c22       7
    x9        obj       78
    x9        c6        7
    x9        c22       3
    x10       obj       1.6e+02
    x10       c7        1
    x10       c8        10
    x10       c21       2
    x10       c22       7
    x11       obj       90
    x11       c8        7
    x11       c22       3
    x12       obj       84
    x12       c8        5
    x12       c22       6
    x13       obj       99
    x13       c9        1
    x13       c10       5
    x13       c21       8
    x13       c22       4
    x14       obj       51
    x14       c10       5
    x14       c22       5
    x15       obj       44
    x15       c10       4
    x15       c22       5
    x16       obj       80
    x16       c11       1
    x16       c12       2
    x16       c21       4
    x16       c22       6
    x17       obj       35
    x17       c12       1
    x17       c22       5
    x18       obj       46
    x18       c12       3
    x18       c22       5
    x19       obj       85
    x19       c13       1
    x19       c14       10
    x19       c21       1
    x19       c22       5
    x20       obj       52
    x20       c14       1
    x20       c22       8
    x21       obj       37
    x21       c14       5
    x21       c22       3
    x22       obj       1.04e+02
    x22       c15       1
    x22       c16       5
    x22       c21       3
    x22       c22       8
    x23       obj       55
    x23       c16       6
    x23       c22       3
    x24       obj       38
    x24       c16       2
    x24       c22       5
    x25       obj       71
    x25       c17       1
    x25       c18       6
    x25       c21       1
    x25       c22       4
    x26       obj       51
    x26       c18       3
    x26       c22       6
    x27       obj       54
    x27       c18       5
    x27       c22       4
    x28       obj       88
    x28       c19       1
    x28       c20       3
    x28       c21       5
    x28       c22       7
    x29       obj       59
    x29       c20       4
    x29       c22       8
    x30       obj       37
    x30       c20       5
    x30       c22       2
    x31       obj       0
RHS
    rhs       c1        7
    rhs       c2        77
    rhs       c3        8
    rhs       c4        1.03e+02
    rhs       c5        6
    rhs       c6        69
    rhs       c7        8
    rhs       c8        1.38e+02
    rhs       c9        12
    rhs       c10       1.28e+02
    rhs       c11       8
    rhs       c12       38
    rhs       c13       12
    rhs       c14       1.68e+02
    rhs       c15       9
    rhs       c16       91
    rhs       c17       10
    rhs       c18       1.13e+02
    rhs       c19       7
    rhs       c20       57
    rhs       c21       3.54e+02
    rhs       c22       1.079e+03
RANGES
BOUNDS
 LI bound     x1        0
 LI bound     x2        0
 FR bound     x3
 LI bound     x4        0
 LI bound     x5        0
 FR bound     x6
 LI bound     x7        0
 LI bound     x8        0
 FR bound     x9
 LI bound     x10       0
 LI bound     x11       0
 FR bound     x12
 LI bound     x13       0
 LI bound     x14       0
 FR bound     x15
 LI bound     x16       0
 LI bound     x17       0
 FR bound     x18
 LI bound     x19       0
 LI bound     x20       0
 FR bound     x21
 LI bound     x22       0
 LI bound     x23       0
 FR bound     x24
 LI bound     x25       0
 LI bound     x26       0
 FR bound     x27
 LI bound     x28       0
 LI bound     x29       0
 FR bound     x30
CSECTION      k1        0              QUAD
    x1
    x2
    x3
CSECTION      k2        0              QUAD
    x4
    x5
    x6
CSECTION      k3        0              QUAD
    x7
    x8
    x9
CSECTION      k4        0              QUAD
    x10
    x11
    x12
CSECTION      k5        0              QUAD
    x13
    x14
    x15
CSECTION      k6        0              QUAD
    x16
    x17
    x18
CSECTION      k7        0              QUAD
    x19
    x20
    x21
CSECTION      k8        0              QUAD
    x22
    x23
    x24
CSECTION      k9        0              QUAD
    x25
    x26
    x27
CSECTION      k10       0              QUAD
    x28
    x29
    x30
ENDATA
